p cnf 24 38
-11 1 0 
-4 14 0 
-5 20 0 
-8 18 0 
-3 17 0 
-24 3 0 
-4 15 0 
-9 3 0 
-21 2 0 
-3 23 0 
-16 8 0 
-5 13 0 
-19 5 0 
-22 5 0 
-1 12 0 
-3 9 0 
-6 10 0 
-7 14 0 
-15 4 7 0 
-2 21 0 
-20 5 0 
-5 22 0 
-10 6 0 
-7 15 0 
-8 16 0 
-17 3 0 
-2 18 0 
-1 11 0 
-5 19 0 
-12 1 5 0 
-23 3 5 0 
-14 4 7 0 
-18 2 8 0 
-5 12 0 
-3 24 0 
-13 5 0 
-5 23 0 
7 8 0 
